30 100000
59762 51
60291 33
89257 82
45598 52
90239 3
36810 38
22289 92
23764 58
477 19
22324 15
54828 89
67321 53
7562 58
96170 39
39828 45
88852 18
28475 71
35749 8
55742 44
22320 8
76392 66
312 22
26886 1
49071 86
79644 70
24055 96
87899 49
31839 58
98545 93
13901 41
